45, 1936
2003, 244
1905, 498
1500, 391
2000, 273
634, 149
1721, 465
2401, 158
1398, 125
659, 106
1393, 345
1651, 146
2416, 337
751, 314
1065, 317
1772, 306
1895, 140
2060, 263
2083, 411
2212, 155
2186, 109
1324, 131
1749, 425
2231, 495
1309, 145
2465, 248
945, 333
2255, 193
612, 105
1376, 387
2450, 363
1031, 281
875, 271
1583, 217
1154, 263
1431, 492
1172, 478
1993, 140
2223, 285
1811, 464
797, 480
1026, 136
2103, 340
2422, 134
1191, 217
2093, 291